p cnf 7 22
-1 -4 0
-4 1 0
-5 -2 0
-4 -3 7 -5 -2 0
4 6 -2 0
2 4 -1 5 0
-7 -4 6 -2 0
6 -7 0
4 3 1 0
-4 -6 -3 -5 -1 -2 7 0
-2 4 -6 0
4 2 6 0
3 5 7 0
-4 7 -1 2 -5 6 3 0
-5 -2 -7 6 0
3 6 4 0
-7 4 5 -6 1 0
-3 4 0
-4 2 0
4 6 -3 0
5 -1 7 -2 0
-6 -5 4 0
